data/processed_heuristic-threshold/instances/1/9/ds_630_courier_3156/pairwise.tsp
NAME: ds_630_courier_3156
TYPE: TSP
COMMENT: nil
DIMENSION: 10
EDGE_WEIGHT_TYPE: EXPLICIT
EDGE_WEIGHT_FORMAT: FULL_MATRIX
EDGE_WEIGHT_SECTION
9999 3501 3301 3196 3492 2942 3024 3052 3609 3067 
3501 9999 206 1013 85 897 1230 630 113 435 
3301 206 9999 897 232 810 1180 537 319 243 
3196 1013 897 9999 1086 1564 1964 1325 1093 929 
3492 85 232 1086 9999 831 1154 569 129 429 
2942 897 810 1564 831 9999 400 274 955 653 
3024 1230 1180 1964 1154 400 9999 653 1265 1046 
3052 630 537 1325 569 274 653 9999 697 398 
3609 113 319 1093 129 955 1265 697 9999 542 
3067 435 243 929 429 653 1046 398 542 9999 
