data/processed_heuristic-threshold/instances/1/9/ds_630_courier_3156/pairwise.sol
10
0 3 1 8 4 2 9 7 5 6 
